c generated by sgen
p cnf 105 220
-2 -3 -4 0
-1 -3 -4 0
-1 -2 -4 0
-1 -2 -3 0
-6 -7 -8 0
-5 -7 -8 0
-5 -6 -8 0
-5 -6 -7 0
-10 -11 -12 0
-9 -11 -12 0
-9 -10 -12 0
-9 -10 -11 0
-14 -15 -16 0
-13 -15 -16 0
-13 -14 -16 0
-13 -14 -15 0
-18 -19 -20 0
-17 -19 -20 0
-17 -18 -20 0
-17 -18 -19 0
-22 -23 -24 0
-21 -23 -24 0
-21 -22 -24 0
-21 -22 -23 0
-26 -27 -28 0
-25 -27 -28 0
-25 -26 -28 0
-25 -26 -27 0
-30 -31 -32 0
-29 -31 -32 0
-29 -30 -32 0
-29 -30 -31 0
-34 -35 -36 0
-33 -35 -36 0
-33 -34 -36 0
-33 -34 -35 0
-38 -39 -40 0
-37 -39 -40 0
-37 -38 -40 0
-37 -38 -39 0
-42 -43 -44 0
-41 -43 -44 0
-41 -42 -44 0
-41 -42 -43 0
-46 -47 -48 0
-45 -47 -48 0
-45 -46 -48 0
-45 -46 -47 0
-50 -51 -52 0
-49 -51 -52 0
-49 -50 -52 0
-49 -50 -51 0
-54 -55 -56 0
-53 -55 -56 0
-53 -54 -56 0
-53 -54 -55 0
-58 -59 -60 0
-57 -59 -60 0
-57 -58 -60 0
-57 -58 -59 0
-62 -63 -64 0
-61 -63 -64 0
-61 -62 -64 0
-61 -62 -63 0
-66 -67 -68 0
-65 -67 -68 0
-65 -66 -68 0
-65 -66 -67 0
-70 -71 -72 0
-69 -71 -72 0
-69 -70 -72 0
-69 -70 -71 0
-74 -75 -76 0
-73 -75 -76 0
-73 -74 -76 0
-73 -74 -75 0
-78 -79 -80 0
-77 -79 -80 0
-77 -78 -80 0
-77 -78 -79 0
-82 -83 -84 0
-81 -83 -84 0
-81 -82 -84 0
-81 -82 -83 0
-86 -87 -88 0
-85 -87 -88 0
-85 -86 -88 0
-85 -86 -87 0
-90 -91 -92 0
-89 -91 -92 0
-89 -90 -92 0
-89 -90 -91 0
-94 -95 -96 0
-93 -95 -96 0
-93 -94 -96 0
-93 -94 -95 0
-98 -99 -100 0
-97 -99 -100 0
-97 -98 -100 0
-97 -98 -99 0
-101 -102 -103 0
-101 -102 -104 0
-101 -102 -105 0
-101 -103 -104 0
-101 -103 -105 0
-101 -104 -105 0
-102 -103 -104 0
-102 -103 -105 0
-102 -104 -105 0
-103 -104 -105 0
79 55 96 0
26 55 96 0
26 79 96 0
26 79 55 0
63 29 59 0
97 29 59 0
97 63 59 0
97 63 29 0
51 99 102 0
22 99 102 0
22 51 102 0
22 51 99 0
2 69 14 0
39 69 14 0
39 2 14 0
39 2 69 0
82 10 62 0
72 10 62 0
72 82 62 0
72 82 10 0
21 15 75 0
31 15 75 0
31 21 75 0
31 21 15 0
81 104 25 0
17 104 25 0
17 81 25 0
17 81 104 0
41 103 47 0
5 103 47 0
5 41 47 0
5 41 103 0
12 27 88 0
98 27 88 0
98 12 88 0
98 12 27 0
87 20 40 0
7 20 40 0
7 87 40 0
7 87 20 0
105 49 30 0
56 49 30 0
56 105 30 0
56 105 49 0
74 65 4 0
58 65 4 0
58 74 4 0
58 74 65 0
70 78 52 0
73 78 52 0
73 70 52 0
73 70 78 0
13 46 18 0
80 46 18 0
80 13 18 0
80 13 46 0
42 35 23 0
71 35 23 0
71 42 23 0
71 42 35 0
67 24 45 0
37 24 45 0
37 67 45 0
37 67 24 0
100 6 33 0
84 6 33 0
84 100 33 0
84 100 6 0
92 16 50 0
57 16 50 0
57 92 50 0
57 92 16 0
101 38 90 0
34 38 90 0
34 101 90 0
34 101 38 0
53 36 3 0
9 36 3 0
9 53 3 0
9 53 36 0
89 64 48 0
54 64 48 0
54 89 48 0
54 89 64 0
68 94 11 0
8 94 11 0
8 68 11 0
8 68 94 0
93 83 76 0
85 83 76 0
85 93 76 0
85 93 83 0
28 91 1 0
44 91 1 0
44 28 1 0
44 28 91 0
32 95 19 0
60 95 19 0
60 32 19 0
60 32 95 0
43 66 77 0
43 66 61 0
43 66 86 0
43 77 61 0
43 77 86 0
43 61 86 0
66 77 61 0
66 77 86 0
66 61 86 0
77 61 86 0
